% Auto-generated by scripts/generate_dzn.py
% problem_type   = polyominoes
% instance       = polyominoes_71
% source_json    = instances_json/0_low_blowup/polyominoes_71.json
% blowup         = 0.7450980392156863
% representation = DFA

mode = 0;

size = 4;
tiles = 6;
n_expressions = 6;
Q = 26;
S = 7;
q0 = [1, 1, 1, 1, 1, 1];
F = [{16}, {6}, {6}, {4}, {4}, {4}];
d_dfa = array3d(1..6, 1..26, 1..7, [
  % k = 1
    2, 1, 1, 1, 1, 1, 1,
    3, 4, 4, 4, 4, 4, 4,
    5, 6, 6, 6, 6, 6, 6,
    26, 7, 7, 7, 7, 7, 7,
    26, 8, 8, 8, 8, 8, 8,
    26, 9, 9, 9, 9, 9, 9,
    10, 11, 11, 11, 11, 11, 11,
    26, 12, 12, 12, 12, 12, 12,
    26, 13, 13, 13, 13, 13, 13,
    14, 26, 26, 26, 26, 26, 26,
    26, 15, 15, 15, 15, 15, 15,
    16, 17, 17, 17, 17, 17, 17,
    18, 19, 19, 19, 19, 19, 19,
    16, 26, 26, 26, 26, 26, 26,
    20, 26, 26, 26, 26, 26, 26,
    26, 16, 16, 16, 16, 16, 16,
    26, 14, 14, 14, 14, 14, 14,
    26, 21, 21, 21, 21, 21, 21,
    18, 26, 26, 26, 26, 26, 26,
    14, 22, 22, 22, 22, 22, 22,
    26, 23, 23, 23, 23, 23, 23,
    26, 24, 24, 24, 24, 24, 24,
    26, 17, 17, 17, 17, 17, 17,
    26, 25, 25, 25, 25, 25, 25,
    14, 10, 10, 10, 10, 10, 10,
    26, 26, 26, 26, 26, 26, 26,

  % k = 2
    1, 2, 1, 1, 1, 1, 1,
    3, 4, 3, 3, 3, 3, 3,
    5, 13, 5, 5, 5, 5, 5,
    13, 6, 13, 13, 13, 13, 13,
    7, 13, 7, 7, 7, 7, 7,
    6, 13, 6, 6, 6, 6, 6,
    8, 13, 8, 8, 8, 8, 8,
    13, 9, 13, 13, 13, 13, 13,
    10, 13, 10, 10, 10, 10, 10,
    11, 13, 11, 11, 11, 11, 11,
    12, 13, 12, 12, 12, 12, 12,
    4, 13, 4, 4, 4, 4, 4,
    13, 13, 13, 13, 13, 13, 13,
    0, 0, 0, 0, 0, 0, 0,
    0, 0, 0, 0, 0, 0, 0,
    0, 0, 0, 0, 0, 0, 0,
    0, 0, 0, 0, 0, 0, 0,
    0, 0, 0, 0, 0, 0, 0,
    0, 0, 0, 0, 0, 0, 0,
    0, 0, 0, 0, 0, 0, 0,
    0, 0, 0, 0, 0, 0, 0,
    0, 0, 0, 0, 0, 0, 0,
    0, 0, 0, 0, 0, 0, 0,
    0, 0, 0, 0, 0, 0, 0,
    0, 0, 0, 0, 0, 0, 0,
    0, 0, 0, 0, 0, 0, 0,

  % k = 3
    1, 1, 2, 1, 1, 1, 1,
    3, 3, 4, 3, 3, 3, 3,
    5, 5, 13, 5, 5, 5, 5,
    13, 13, 6, 13, 13, 13, 13,
    7, 7, 13, 7, 7, 7, 7,
    6, 6, 13, 6, 6, 6, 6,
    8, 8, 13, 8, 8, 8, 8,
    13, 13, 9, 13, 13, 13, 13,
    10, 10, 13, 10, 10, 10, 10,
    11, 11, 13, 11, 11, 11, 11,
    12, 12, 13, 12, 12, 12, 12,
    4, 4, 13, 4, 4, 4, 4,
    13, 13, 13, 13, 13, 13, 13,
    0, 0, 0, 0, 0, 0, 0,
    0, 0, 0, 0, 0, 0, 0,
    0, 0, 0, 0, 0, 0, 0,
    0, 0, 0, 0, 0, 0, 0,
    0, 0, 0, 0, 0, 0, 0,
    0, 0, 0, 0, 0, 0, 0,
    0, 0, 0, 0, 0, 0, 0,
    0, 0, 0, 0, 0, 0, 0,
    0, 0, 0, 0, 0, 0, 0,
    0, 0, 0, 0, 0, 0, 0,
    0, 0, 0, 0, 0, 0, 0,
    0, 0, 0, 0, 0, 0, 0,
    0, 0, 0, 0, 0, 0, 0,

  % k = 4
    1, 1, 1, 2, 1, 1, 1,
    3, 3, 3, 4, 3, 3, 3,
    5, 5, 5, 8, 5, 5, 5,
    4, 4, 4, 8, 4, 4, 4,
    6, 6, 6, 8, 6, 6, 6,
    7, 7, 7, 8, 7, 7, 7,
    8, 8, 8, 4, 8, 8, 8,
    8, 8, 8, 8, 8, 8, 8,
    0, 0, 0, 0, 0, 0, 0,
    0, 0, 0, 0, 0, 0, 0,
    0, 0, 0, 0, 0, 0, 0,
    0, 0, 0, 0, 0, 0, 0,
    0, 0, 0, 0, 0, 0, 0,
    0, 0, 0, 0, 0, 0, 0,
    0, 0, 0, 0, 0, 0, 0,
    0, 0, 0, 0, 0, 0, 0,
    0, 0, 0, 0, 0, 0, 0,
    0, 0, 0, 0, 0, 0, 0,
    0, 0, 0, 0, 0, 0, 0,
    0, 0, 0, 0, 0, 0, 0,
    0, 0, 0, 0, 0, 0, 0,
    0, 0, 0, 0, 0, 0, 0,
    0, 0, 0, 0, 0, 0, 0,
    0, 0, 0, 0, 0, 0, 0,
    0, 0, 0, 0, 0, 0, 0,
    0, 0, 0, 0, 0, 0, 0,

  % k = 5
    1, 1, 1, 1, 2, 1, 1,
    3, 3, 3, 3, 4, 3, 3,
    5, 5, 5, 5, 8, 5, 5,
    4, 4, 4, 4, 8, 4, 4,
    6, 6, 6, 6, 8, 6, 6,
    7, 7, 7, 7, 8, 7, 7,
    8, 8, 8, 8, 4, 8, 8,
    8, 8, 8, 8, 8, 8, 8,
    0, 0, 0, 0, 0, 0, 0,
    0, 0, 0, 0, 0, 0, 0,
    0, 0, 0, 0, 0, 0, 0,
    0, 0, 0, 0, 0, 0, 0,
    0, 0, 0, 0, 0, 0, 0,
    0, 0, 0, 0, 0, 0, 0,
    0, 0, 0, 0, 0, 0, 0,
    0, 0, 0, 0, 0, 0, 0,
    0, 0, 0, 0, 0, 0, 0,
    0, 0, 0, 0, 0, 0, 0,
    0, 0, 0, 0, 0, 0, 0,
    0, 0, 0, 0, 0, 0, 0,
    0, 0, 0, 0, 0, 0, 0,
    0, 0, 0, 0, 0, 0, 0,
    0, 0, 0, 0, 0, 0, 0,
    0, 0, 0, 0, 0, 0, 0,
    0, 0, 0, 0, 0, 0, 0,
    0, 0, 0, 0, 0, 0, 0,

  % k = 6
    1, 1, 1, 1, 1, 2, 1,
    3, 3, 3, 3, 3, 4, 3,
    5, 5, 5, 5, 5, 8, 5,
    4, 4, 4, 4, 4, 8, 4,
    6, 6, 6, 6, 6, 8, 6,
    7, 7, 7, 7, 7, 8, 7,
    8, 8, 8, 8, 8, 4, 8,
    8, 8, 8, 8, 8, 8, 8,
    0, 0, 0, 0, 0, 0, 0,
    0, 0, 0, 0, 0, 0, 0,
    0, 0, 0, 0, 0, 0, 0,
    0, 0, 0, 0, 0, 0, 0,
    0, 0, 0, 0, 0, 0, 0,
    0, 0, 0, 0, 0, 0, 0,
    0, 0, 0, 0, 0, 0, 0,
    0, 0, 0, 0, 0, 0, 0,
    0, 0, 0, 0, 0, 0, 0,
    0, 0, 0, 0, 0, 0, 0,
    0, 0, 0, 0, 0, 0, 0,
    0, 0, 0, 0, 0, 0, 0,
    0, 0, 0, 0, 0, 0, 0,
    0, 0, 0, 0, 0, 0, 0,
    0, 0, 0, 0, 0, 0, 0,
    0, 0, 0, 0, 0, 0, 0,
    0, 0, 0, 0, 0, 0, 0,
    0, 0, 0, 0, 0, 0, 0
]);
d_nfa = array3d(1..6, 1..26, 1..7, [
  % k = 1
    {}, {}, {}, {}, {}, {}, {},
    {}, {}, {}, {}, {}, {}, {},
    {}, {}, {}, {}, {}, {}, {},
    {}, {}, {}, {}, {}, {}, {},
    {}, {}, {}, {}, {}, {}, {},
    {}, {}, {}, {}, {}, {}, {},
    {}, {}, {}, {}, {}, {}, {},
    {}, {}, {}, {}, {}, {}, {},
    {}, {}, {}, {}, {}, {}, {},
    {}, {}, {}, {}, {}, {}, {},
    {}, {}, {}, {}, {}, {}, {},
    {}, {}, {}, {}, {}, {}, {},
    {}, {}, {}, {}, {}, {}, {},
    {}, {}, {}, {}, {}, {}, {},
    {}, {}, {}, {}, {}, {}, {},
    {}, {}, {}, {}, {}, {}, {},
    {}, {}, {}, {}, {}, {}, {},
    {}, {}, {}, {}, {}, {}, {},
    {}, {}, {}, {}, {}, {}, {},
    {}, {}, {}, {}, {}, {}, {},
    {}, {}, {}, {}, {}, {}, {},
    {}, {}, {}, {}, {}, {}, {},
    {}, {}, {}, {}, {}, {}, {},
    {}, {}, {}, {}, {}, {}, {},
    {}, {}, {}, {}, {}, {}, {},
    {}, {}, {}, {}, {}, {}, {},

  % k = 2
    {}, {}, {}, {}, {}, {}, {},
    {}, {}, {}, {}, {}, {}, {},
    {}, {}, {}, {}, {}, {}, {},
    {}, {}, {}, {}, {}, {}, {},
    {}, {}, {}, {}, {}, {}, {},
    {}, {}, {}, {}, {}, {}, {},
    {}, {}, {}, {}, {}, {}, {},
    {}, {}, {}, {}, {}, {}, {},
    {}, {}, {}, {}, {}, {}, {},
    {}, {}, {}, {}, {}, {}, {},
    {}, {}, {}, {}, {}, {}, {},
    {}, {}, {}, {}, {}, {}, {},
    {}, {}, {}, {}, {}, {}, {},
    {}, {}, {}, {}, {}, {}, {},
    {}, {}, {}, {}, {}, {}, {},
    {}, {}, {}, {}, {}, {}, {},
    {}, {}, {}, {}, {}, {}, {},
    {}, {}, {}, {}, {}, {}, {},
    {}, {}, {}, {}, {}, {}, {},
    {}, {}, {}, {}, {}, {}, {},
    {}, {}, {}, {}, {}, {}, {},
    {}, {}, {}, {}, {}, {}, {},
    {}, {}, {}, {}, {}, {}, {},
    {}, {}, {}, {}, {}, {}, {},
    {}, {}, {}, {}, {}, {}, {},
    {}, {}, {}, {}, {}, {}, {},

  % k = 3
    {}, {}, {}, {}, {}, {}, {},
    {}, {}, {}, {}, {}, {}, {},
    {}, {}, {}, {}, {}, {}, {},
    {}, {}, {}, {}, {}, {}, {},
    {}, {}, {}, {}, {}, {}, {},
    {}, {}, {}, {}, {}, {}, {},
    {}, {}, {}, {}, {}, {}, {},
    {}, {}, {}, {}, {}, {}, {},
    {}, {}, {}, {}, {}, {}, {},
    {}, {}, {}, {}, {}, {}, {},
    {}, {}, {}, {}, {}, {}, {},
    {}, {}, {}, {}, {}, {}, {},
    {}, {}, {}, {}, {}, {}, {},
    {}, {}, {}, {}, {}, {}, {},
    {}, {}, {}, {}, {}, {}, {},
    {}, {}, {}, {}, {}, {}, {},
    {}, {}, {}, {}, {}, {}, {},
    {}, {}, {}, {}, {}, {}, {},
    {}, {}, {}, {}, {}, {}, {},
    {}, {}, {}, {}, {}, {}, {},
    {}, {}, {}, {}, {}, {}, {},
    {}, {}, {}, {}, {}, {}, {},
    {}, {}, {}, {}, {}, {}, {},
    {}, {}, {}, {}, {}, {}, {},
    {}, {}, {}, {}, {}, {}, {},
    {}, {}, {}, {}, {}, {}, {},

  % k = 4
    {}, {}, {}, {}, {}, {}, {},
    {}, {}, {}, {}, {}, {}, {},
    {}, {}, {}, {}, {}, {}, {},
    {}, {}, {}, {}, {}, {}, {},
    {}, {}, {}, {}, {}, {}, {},
    {}, {}, {}, {}, {}, {}, {},
    {}, {}, {}, {}, {}, {}, {},
    {}, {}, {}, {}, {}, {}, {},
    {}, {}, {}, {}, {}, {}, {},
    {}, {}, {}, {}, {}, {}, {},
    {}, {}, {}, {}, {}, {}, {},
    {}, {}, {}, {}, {}, {}, {},
    {}, {}, {}, {}, {}, {}, {},
    {}, {}, {}, {}, {}, {}, {},
    {}, {}, {}, {}, {}, {}, {},
    {}, {}, {}, {}, {}, {}, {},
    {}, {}, {}, {}, {}, {}, {},
    {}, {}, {}, {}, {}, {}, {},
    {}, {}, {}, {}, {}, {}, {},
    {}, {}, {}, {}, {}, {}, {},
    {}, {}, {}, {}, {}, {}, {},
    {}, {}, {}, {}, {}, {}, {},
    {}, {}, {}, {}, {}, {}, {},
    {}, {}, {}, {}, {}, {}, {},
    {}, {}, {}, {}, {}, {}, {},
    {}, {}, {}, {}, {}, {}, {},

  % k = 5
    {}, {}, {}, {}, {}, {}, {},
    {}, {}, {}, {}, {}, {}, {},
    {}, {}, {}, {}, {}, {}, {},
    {}, {}, {}, {}, {}, {}, {},
    {}, {}, {}, {}, {}, {}, {},
    {}, {}, {}, {}, {}, {}, {},
    {}, {}, {}, {}, {}, {}, {},
    {}, {}, {}, {}, {}, {}, {},
    {}, {}, {}, {}, {}, {}, {},
    {}, {}, {}, {}, {}, {}, {},
    {}, {}, {}, {}, {}, {}, {},
    {}, {}, {}, {}, {}, {}, {},
    {}, {}, {}, {}, {}, {}, {},
    {}, {}, {}, {}, {}, {}, {},
    {}, {}, {}, {}, {}, {}, {},
    {}, {}, {}, {}, {}, {}, {},
    {}, {}, {}, {}, {}, {}, {},
    {}, {}, {}, {}, {}, {}, {},
    {}, {}, {}, {}, {}, {}, {},
    {}, {}, {}, {}, {}, {}, {},
    {}, {}, {}, {}, {}, {}, {},
    {}, {}, {}, {}, {}, {}, {},
    {}, {}, {}, {}, {}, {}, {},
    {}, {}, {}, {}, {}, {}, {},
    {}, {}, {}, {}, {}, {}, {},
    {}, {}, {}, {}, {}, {}, {},

  % k = 6
    {}, {}, {}, {}, {}, {}, {},
    {}, {}, {}, {}, {}, {}, {},
    {}, {}, {}, {}, {}, {}, {},
    {}, {}, {}, {}, {}, {}, {},
    {}, {}, {}, {}, {}, {}, {},
    {}, {}, {}, {}, {}, {}, {},
    {}, {}, {}, {}, {}, {}, {},
    {}, {}, {}, {}, {}, {}, {},
    {}, {}, {}, {}, {}, {}, {},
    {}, {}, {}, {}, {}, {}, {},
    {}, {}, {}, {}, {}, {}, {},
    {}, {}, {}, {}, {}, {}, {},
    {}, {}, {}, {}, {}, {}, {},
    {}, {}, {}, {}, {}, {}, {},
    {}, {}, {}, {}, {}, {}, {},
    {}, {}, {}, {}, {}, {}, {},
    {}, {}, {}, {}, {}, {}, {},
    {}, {}, {}, {}, {}, {}, {},
    {}, {}, {}, {}, {}, {}, {},
    {}, {}, {}, {}, {}, {}, {},
    {}, {}, {}, {}, {}, {}, {},
    {}, {}, {}, {}, {}, {}, {},
    {}, {}, {}, {}, {}, {}, {},
    {}, {}, {}, {}, {}, {}, {},
    {}, {}, {}, {}, {}, {}, {},
    {}, {}, {}, {}, {}, {}, {}
]);
